HUN,8,6,916
5,29,1,29,2,29,3,28,4,25,0,29
2,23,1,29,3,26,4,25,0,28,5,29
5,25,2,27,1,21,0,26,4,28,3,29
2,27,4,21,3,25,0,23,1,28,5,24
4,28,0,21,2,23,3,29,1,26,5,27
2,27,3,21,1,29,0,29,4,28,5,24
0,21,1,22,4,30,3,28,2,28,5,23
3,24,4,23,5,27,2,27,0,28,1,25
